100 8
797 251
664 589
605 381
436 917
426 141
512 613
578 220
256 278
342 340
169 630
773 59
643 729
259 654
435 610
401 379
783 235
758 76
221 217
433 608
516 662
540 234
536 389
164 260
608 543
221 516
506 532
265 330
645 442
616 561
821 247
368 576
783 293
447 568
418 259
368 589
815 620
18 745
241 315
529 385
452 306
587 518
367 560
433 494
200 232
415 815
130 509
837 240
751 356
694 768
739 232
288 632
348 358
416 160
921 64
607 445
464 402
579 723
120 720
455 692
724 332
838 73
540 649
387 278
509 496
240 302
410 259
737 231
912 231
599 328
308 563
450 161
573 267
119 784
843 46
262 491
217 559
734 591
692 316
286 611
566 492
161 659
796 527
689 448
548 273
771 187
744 345
451 675
64 742
831 64
193 345
434 410
103 411
415 768
425 570
429 900
754 339
448 233
199 521
107 682
346 351
